200
150 150
1 120 185
2 119 778
3 119 676
4 119 277
5 119 421
6 117 602
7 117 562
8 117 59
9 116 168
10 116 797
11 116 368
12 115 654
13 115 966
14 115 761
15 114 70
16 112 878
17 112 262
18 112 962
19 110 620
20 110 773
21 110 398
22 110 829
23 108 464
24 108 694
25 107 253
26 107 584
27 106 425
28 105 71
29 104 113
30 103 156
31 103 127
32 101 527
33 101 797
34 100 623
35 100 395
36 97 988
37 96 423
38 96 836
39 96 561
40 95 396
41 95 207
42 95 629
43 95 993
44 94 909
45 94 227
46 94 25
47 94 623
48 94 1000
49 92 3
50 91 866
51 90 197
52 90 114
53 90 286
54 89 97
55 89 71
56 88 744
57 88 558
58 88 437
59 87 567
60 86 681
61 86 366
62 84 845
63 84 227
64 84 144
65 83 780
66 83 469
67 83 338
68 82 691
69 82 318
70 80 722
71 80 95
72 80 276
73 80 576
74 79 782
75 78 305
76 78 975
77 78 637
78 77 456
79 75 588
80 75 831
81 75 983
82 75 171
83 74 717
84 74 991
85 74 463
86 73 331
87 73 600
88 73 250
89 73 345
90 73 224
91 71 295
92 70 73
93 70 184
94 70 377
95 68 224
96 68 956
97 68 970
98 68 547
99 67 529
100 67 980
101 67 314
102 67 739
103 67 272
104 66 111
105 66 135
106 65 618
107 65 740
108 63 700
109 63 487
110 62 14
111 62 860
112 61 381
113 61 357
114 61 467
115 61 511
116 60 847
117 59 294
118 59 803
119 59 835
120 56 656
121 56 681
122 55 9
123 55 845
124 55 45
125 55 981
126 53 368
127 53 684
128 53 940
129 53 608
130 51 184
131 51 894
132 51 731
133 50 126
134 48 285
135 47 281
136 47 973
137 47 714
138 46 773
139 45 77
140 45 282
141 45 93
142 45 417
143 45 560
144 45 985
145 44 590
146 43 662
147 43 366
148 42 185
149 42 185
150 41 71
151 41 823
152 41 191
153 41 88
154 40 415
155 40 229
156 40 682
157 40 439
158 38 549
159 38 571
160 37 436
161 37 292
162 36 571
163 36 983
164 36 363
165 35 442
166 35 813
167 34 296
168 34 274
169 34 835
170 33 685
171 33 853
172 33 125
173 32 189
174 32 704
175 32 366
176 31 257
177 31 860
178 30 978
179 30 117
180 29 907
181 29 10
182 28 107
183 27 602
184 25 570
185 25 689
186 25 687
187 25 737
188 25 431
189 25 891
190 24 329
191 24 353
192 22 161
193 21 194
194 21 244
195 21 597
196 19 978
197 18 147
198 16 686
199 16 618
200 16 752
